r = [
0,78,100,75,110,107,79,44,127,115,105,0
];
p = [
0,16,1,22,29,28,16,7,21,7,6,0
];
e = [
0,12,17,8,19,13,19,4,10,10,2,0
];
d = [
0,94,143,97,139,135,95,51,148,122,111,159
];
d_bar = [
0,102,144,108,154,149,103,55,159,126,114,159
];
w = [
0,1.5,17,0.727272727,1.266666667,0.928571429,2.375,1,0.909090909,2.5,0.666666667,0
];
